(set-info :smt-lib-version 2.6)
(set-logic AUFBVFPDTNIRA)
(set-info :source |
Generated by: AdaCore
Generated on: 2020-03-06
Generator: SPARK
Application: Program verification for Ada
Target solver: Z3
|)
(set-info :license "https://creativecommons.org/licenses/by/4.0/")
(set-info :category "industrial")
(set-info :status unknown)
;;; generated by SMT-LIB2 driver
;;; SMT-LIB2 driver: bit-vectors, common part
;;; SMT-LIB2: integer arithmetic
(declare-sort string 0)

(declare-datatypes () ((tuple0 (Tuple0))))
(declare-sort us_private 0)

(declare-fun private__bool_eq (us_private us_private) Bool)

(declare-const us_null_ext__ us_private)

(declare-sort us_type_of_heap 0)

(declare-datatypes ()
((us_type_of_heap__ref
 (us_type_of_heap__refqtmk (us_type_of_heap__content us_type_of_heap)))))
(declare-sort us_image 0)

(declare-datatypes () ((int__ref (int__refqtmk (int__content Int)))))
(declare-datatypes () ((bool__ref (bool__refqtmk (bool__content Bool)))))
(declare-datatypes ()
((us_fixed__ref (us_fixed__refqtmk (us_fixed__content Int)))))
(declare-datatypes () ((real__ref (real__refqtmk (real__content Real)))))
(declare-datatypes ()
((us_private__ref (us_private__refqtmk (us_private__content us_private)))))
(define-fun int__ref___projection ((a int__ref)) Int (int__content a))

(define-fun us_fixed__ref___projection ((a us_fixed__ref)) Int (us_fixed__content
                                                               a))

(define-fun bool__ref___projection ((a bool__ref)) Bool (bool__content a))

(define-fun real__ref___projection ((a real__ref)) Real (real__content a))

(define-fun us_private__ref___projection ((a us_private__ref)) us_private 
  (us_private__content a))

(define-fun abs1 ((x Int)) Int (ite (<= 0 x) x (- x)))

;; Abs_le
  (assert
  (forall ((x Int) (y Int)) (= (<= (abs1 x) y) (and (<= (- y) x) (<= x y)))))

;; Abs_pos
  (assert (forall ((x Int)) (<= 0 (abs1 x))))

(declare-fun div1 (Int Int) Int)

(declare-fun mod1 (Int Int) Int)

;; Div_mod
  (assert
  (forall ((x Int) (y Int))
  (=> (not (= y 0)) (= x (+ (* y (div1 x y)) (mod1 x y))))))

;; Div_bound
  (assert
  (forall ((x Int) (y Int))
  (=> (and (<= 0 x) (< 0 y)) (and (<= 0 (div1 x y)) (<= (div1 x y) x)))))

;; Mod_bound
  (assert
  (forall ((x Int) (y Int))
  (=> (not (= y 0))
  (and (< (- (abs1 y)) (mod1 x y)) (< (mod1 x y) (abs1 y))))))

;; Div_sign_pos
  (assert
  (forall ((x Int) (y Int)) (=> (and (<= 0 x) (< 0 y)) (<= 0 (div1 x y)))))

;; Div_sign_neg
  (assert
  (forall ((x Int) (y Int)) (=> (and (<= x 0) (< 0 y)) (<= (div1 x y) 0))))

;; Mod_sign_pos
  (assert
  (forall ((x Int) (y Int))
  (=> (and (<= 0 x) (not (= y 0))) (<= 0 (mod1 x y)))))

;; Mod_sign_neg
  (assert
  (forall ((x Int) (y Int))
  (=> (and (<= x 0) (not (= y 0))) (<= (mod1 x y) 0))))

;; Rounds_toward_zero
  (assert
  (forall ((x Int) (y Int))
  (=> (not (= y 0)) (<= (abs1 (* (div1 x y) y)) (abs1 x)))))

;; Div_1
  (assert (forall ((x Int)) (= (div1 x 1) x)))

;; Mod_1
  (assert (forall ((x Int)) (= (mod1 x 1) 0)))

;; Div_inf
  (assert
  (forall ((x Int) (y Int)) (=> (and (<= 0 x) (< x y)) (= (div1 x y) 0))))

;; Mod_inf
  (assert
  (forall ((x Int) (y Int)) (=> (and (<= 0 x) (< x y)) (= (mod1 x y) x))))

;; Div_mult
  (assert
  (forall ((x Int) (y Int) (z Int))
  (! (=> (and (< 0 x) (and (<= 0 y) (<= 0 z)))
     (= (div1 (+ (* x y) z) x) (+ y (div1 z x)))) :pattern ((div1
                                                            (+ (* x y) z) x)) )))

;; Mod_mult
  (assert
  (forall ((x Int) (y Int) (z Int))
  (! (=> (and (< 0 x) (and (<= 0 y) (<= 0 z)))
     (= (mod1 (+ (* x y) z) x) (mod1 z x))) :pattern ((mod1 (+ (* x y) z) x)) )))

(define-fun mod2 ((x Int)
  (y Int)) Int (ite (< 0 y) (mod x y) (+ (mod x y) y)))

(declare-fun nth ((_ BitVec 32) Int) Bool)

(declare-fun lsr ((_ BitVec 32) Int) (_ BitVec 32))

(declare-fun asr ((_ BitVec 32) Int) (_ BitVec 32))

(declare-fun lsl ((_ BitVec 32) Int) (_ BitVec 32))

(declare-fun rotate_right1 ((_ BitVec 32) Int) (_ BitVec 32))

(declare-fun rotate_left1 ((_ BitVec 32) Int) (_ BitVec 32))

(declare-fun pow2 (Int) Int)

(define-fun to_int1 ((x (_ BitVec 32))) Int (ite (bvsge x (_ bv0 32))
                                            (bv2int x)
                                            (- (- 4294967296 (bv2int x)))))

(define-fun uint_in_range ((i Int)) Bool (and (<= 0 i) (<= i 4294967295)))

(declare-fun nth_bv ((_ BitVec 32) (_ BitVec 32)) Bool)

(declare-fun eq_sub_bv ((_ BitVec 32) (_ BitVec 32) (_ BitVec 32)
  (_ BitVec 32)) Bool)

(define-fun eq_sub ((a (_ BitVec 32)) (b (_ BitVec 32)) (i Int)
  (n Int)) Bool (forall ((j Int))
                (=> (and (<= i j) (< j (+ i n))) (= (nth a j) (nth b j)))))

(declare-datatypes () ((t__ref (t__refqtmk (t__content (_ BitVec 32))))))
(declare-fun power ((_ BitVec 32) Int) (_ BitVec 32))

(define-fun bv_min ((x (_ BitVec 32))
  (y (_ BitVec 32))) (_ BitVec 32) (ite (bvule x y) x y))

(define-fun bv_max ((x (_ BitVec 32))
  (y (_ BitVec 32))) (_ BitVec 32) (ite (bvule x y) y x))

(define-fun min ((x Int) (y Int)) Int (ite (<= x y) x y))

(define-fun max ((x Int) (y Int)) Int (ite (<= x y) y x))

;; Min_r
  (assert (forall ((x Int) (y Int)) (=> (<= y x) (= (min x y) y))))

;; Max_l
  (assert (forall ((x Int) (y Int)) (=> (<= y x) (= (max x y) x))))

;; Min_comm
  (assert (forall ((x Int) (y Int)) (= (min x y) (min y x))))

;; Max_comm
  (assert (forall ((x Int) (y Int)) (= (max x y) (max y x))))

;; Min_assoc
  (assert
  (forall ((x Int) (y Int) (z Int)) (= (min (min x y) z) (min x (min y z)))))

;; Max_assoc
  (assert
  (forall ((x Int) (y Int) (z Int)) (= (max (max x y) z) (max x (max y z)))))

(declare-fun nth1 ((_ BitVec 64) Int) Bool)

(declare-fun lsr1 ((_ BitVec 64) Int) (_ BitVec 64))

(declare-fun asr1 ((_ BitVec 64) Int) (_ BitVec 64))

(declare-fun lsl1 ((_ BitVec 64) Int) (_ BitVec 64))

(declare-fun rotate_right2 ((_ BitVec 64) Int) (_ BitVec 64))

(declare-fun rotate_left2 ((_ BitVec 64) Int) (_ BitVec 64))

(define-fun to_int2 ((x (_ BitVec 64))) Int (ite (bvsge x (_ bv0 64))
                                            (bv2int x)
                                            (- (- 18446744073709551616 (bv2int x)))))

(define-fun uint_in_range1 ((i Int)) Bool (and (<= 0 i)
                                          (<= i 18446744073709551615)))

(declare-fun nth_bv1 ((_ BitVec 64) (_ BitVec 64)) Bool)

(declare-fun eq_sub_bv1 ((_ BitVec 64) (_ BitVec 64) (_ BitVec 64)
  (_ BitVec 64)) Bool)

(define-fun eq_sub1 ((a (_ BitVec 64)) (b (_ BitVec 64)) (i Int)
  (n Int)) Bool (forall ((j Int))
                (=> (and (<= i j) (< j (+ i n))) (= (nth1 a j) (nth1 b j)))))

(declare-datatypes () ((t__ref1 (t__refqtmk1 (t__content1 (_ BitVec 64))))))
(declare-fun power1 ((_ BitVec 64) Int) (_ BitVec 64))

(define-fun bv_min1 ((x (_ BitVec 64))
  (y (_ BitVec 64))) (_ BitVec 64) (ite (bvule x y) x y))

(define-fun bv_max1 ((x (_ BitVec 64))
  (y (_ BitVec 64))) (_ BitVec 64) (ite (bvule x y) y x))

(declare-sort integer 0)

(declare-fun integerqtint (integer) Int)

;; integer'axiom
  (assert
  (forall ((i integer))
  (and (<= (- 2147483648) (integerqtint i)) (<= (integerqtint i) 2147483647))))

(define-fun in_range ((x Int)) Bool (and (<= (- 2147483648) x)
                                    (<= x 2147483647)))

(declare-fun attr__ATTRIBUTE_IMAGE (Int) us_image)

(declare-fun attr__ATTRIBUTE_VALUE__pre_check (us_image) Bool)

(declare-fun attr__ATTRIBUTE_VALUE (us_image) Int)

(declare-fun user_eq (integer integer) Bool)

(declare-const dummy integer)

(declare-datatypes ()
((integer__ref (integer__refqtmk (integer__content integer)))))
(define-fun integer__ref_integer__content__projection ((a integer__ref)) integer 
  (integer__content a))

(declare-const attr__ATTRIBUTE_ADDRESS Int)

(define-fun dynamic_invariant ((temp___expr_18 Int) (temp___is_init_14 Bool)
  (temp___skip_constant_15 Bool) (temp___do_toplevel_16 Bool)
  (temp___do_typ_inv_17 Bool)) Bool (=>
                                    (or (= temp___is_init_14 true)
                                    (<= (- 2147483648) 2147483647)) (in_range
                                    temp___expr_18)))

(declare-fun xqueue_create ((_ BitVec 32) Int) (_ BitVec 64))

(declare-fun xqueue_create__function_guard ((_ BitVec 64) (_ BitVec 32)
  Int) Bool)

(declare-sort pvoid 0)

(declare-const attr__ATTRIBUTE_MODULUS (_ BitVec 64))

(declare-fun attr__ATTRIBUTE_IMAGE1 ((_ BitVec 64)) us_image)

(declare-fun attr__ATTRIBUTE_VALUE__pre_check1 (us_image) Bool)

(declare-fun attr__ATTRIBUTE_VALUE1 (us_image) (_ BitVec 64))

(declare-fun user_eq1 (pvoid pvoid) Bool)

(declare-const dummy1 pvoid)

(declare-datatypes () ((pvoid__ref (pvoid__refqtmk (pvoid__content pvoid)))))
(define-fun pvoid__ref_pvoid__content__projection ((a pvoid__ref)) pvoid 
  (pvoid__content a))

(declare-sort unsigned_32 0)

(declare-const attr__ATTRIBUTE_MODULUS1 (_ BitVec 32))

(declare-fun attr__ATTRIBUTE_IMAGE2 ((_ BitVec 32)) us_image)

(declare-fun attr__ATTRIBUTE_VALUE__pre_check2 (us_image) Bool)

(declare-fun attr__ATTRIBUTE_VALUE2 (us_image) (_ BitVec 32))

(declare-fun user_eq2 (unsigned_32 unsigned_32) Bool)

(declare-const dummy2 unsigned_32)

(declare-datatypes ()
((unsigned_32__ref (unsigned_32__refqtmk (unsigned_32__content unsigned_32)))))
(define-fun unsigned_32__ref_unsigned_32__content__projection ((a unsigned_32__ref)) unsigned_32 
  (unsigned_32__content a))

(define-fun dynamic_invariant1 ((temp___expr_185 (_ BitVec 32))
  (temp___is_init_181 Bool) (temp___skip_constant_182 Bool)
  (temp___do_toplevel_183 Bool) (temp___do_typ_inv_184 Bool)) Bool true)

;; xqueue_create__post_axiom
  (assert true)

(declare-fun to_rep (pvoid) (_ BitVec 64))

(declare-fun of_rep ((_ BitVec 64)) pvoid)

;; inversion_axiom
  (assert
  (forall ((x pvoid)) (! (= (of_rep (to_rep x)) x) :pattern ((to_rep x)) )))

;; range_axiom
  (assert true)

;; coerce_axiom
  (assert
  (forall ((x (_ BitVec 64)))
  (! (= (to_rep (of_rep x)) x) :pattern ((to_rep (of_rep x))) )))

(define-fun to_int3 ((x pvoid)) Int (bv2int (to_rep x)))

;; range_int_axiom
  (assert
  (forall ((x pvoid)) (! (uint_in_range1
  (to_int3 x)) :pattern ((to_int3 x)) )))

(declare-sort action 0)

(define-fun in_range1 ((x Int)) Bool (and (<= 0 x) (<= x 2)))

(declare-fun attr__ATTRIBUTE_IMAGE3 (Int) us_image)

(declare-fun attr__ATTRIBUTE_VALUE__pre_check3 (us_image) Bool)

(declare-fun attr__ATTRIBUTE_VALUE3 (us_image) Int)

(declare-fun user_eq3 (action action) Bool)

(declare-const dummy3 action)

(declare-datatypes ()
((action__ref (action__refqtmk (action__content action)))))
(define-fun action__ref_action__content__projection ((a action__ref)) action 
  (action__content a))

(declare-fun to_rep1 (action) Int)

(declare-fun of_rep1 (Int) action)

;; inversion_axiom
  (assert
  (forall ((x action))
  (! (= (of_rep1 (to_rep1 x)) x) :pattern ((to_rep1 x)) )))

;; range_axiom
  (assert
  (forall ((x action)) (! (in_range1 (to_rep1 x)) :pattern ((to_rep1 x)) )))

;; coerce_axiom
  (assert
  (forall ((x Int))
  (! (=> (in_range1 x) (= (to_rep1 (of_rep1 x)) x)) :pattern ((to_rep1
                                                              (of_rep1 x))) )))

(declare-datatypes ()
((us_split_fields
 (us_split_fieldsqtmk
 (rec__worker_pack__worker_work__func action)(rec__worker_pack__worker_work__arg pvoid)))))
(define-fun us_split_fields_rec__worker_pack__worker_work__func__projection ((a us_split_fields)) action 
  (rec__worker_pack__worker_work__func a))

(define-fun us_split_fields_rec__worker_pack__worker_work__arg__projection ((a us_split_fields)) pvoid 
  (rec__worker_pack__worker_work__arg a))

(declare-datatypes ()
((us_split_fields__ref
 (us_split_fields__refqtmk (us_split_fields__content us_split_fields)))))
(define-fun us_split_fields__ref___split_fields__content__projection ((a us_split_fields__ref)) us_split_fields 
  (us_split_fields__content a))

(declare-datatypes ()
((us_rep (us_repqtmk (us_split_fields1 us_split_fields)))))
(define-fun us_rep___split_fields__projection ((a us_rep)) us_split_fields 
  (us_split_fields1 a))

(define-fun bool_eq ((a us_rep)
  (b us_rep)) Bool (ite (and
                        (= (to_rep1
                           (rec__worker_pack__worker_work__func
                           (us_split_fields1 a))) (to_rep1
                                                  (rec__worker_pack__worker_work__func
                                                  (us_split_fields1 b))))
                        (= (to_rep
                           (rec__worker_pack__worker_work__arg
                           (us_split_fields1 a))) (to_rep
                                                  (rec__worker_pack__worker_work__arg
                                                  (us_split_fields1 b)))))
                   true false))

(declare-const value__size Int)

(declare-const object__size Int)

(declare-const alignment Int)

;; value__size_axiom
  (assert (<= 0 value__size))

;; object__size_axiom
  (assert (<= 0 object__size))

;; alignment_axiom
  (assert (<= 0 alignment))

(declare-const worker_pack__worker_work__func__first__bit Int)

(declare-const worker_pack__worker_work__func__last__bit Int)

(declare-const worker_pack__worker_work__func__position Int)

;; worker_pack__worker_work__func__first__bit_axiom
  (assert (<= 0 worker_pack__worker_work__func__first__bit))

;; worker_pack__worker_work__func__last__bit_axiom
  (assert
  (< worker_pack__worker_work__func__first__bit worker_pack__worker_work__func__last__bit))

;; worker_pack__worker_work__func__position_axiom
  (assert (<= 0 worker_pack__worker_work__func__position))

(declare-const worker_pack__worker_work__arg__first__bit Int)

(declare-const worker_pack__worker_work__arg__last__bit Int)

(declare-const worker_pack__worker_work__arg__position Int)

;; worker_pack__worker_work__arg__first__bit_axiom
  (assert (<= 0 worker_pack__worker_work__arg__first__bit))

;; worker_pack__worker_work__arg__last__bit_axiom
  (assert
  (< worker_pack__worker_work__arg__first__bit worker_pack__worker_work__arg__last__bit))

;; worker_pack__worker_work__arg__position_axiom
  (assert (<= 0 worker_pack__worker_work__arg__position))

(declare-fun user_eq4 (us_rep us_rep) Bool)

(declare-const dummy4 us_rep)

(declare-datatypes ()
((worker_work__ref (worker_work__refqtmk (worker_work__content us_rep)))))
(define-fun worker_work__ref_worker_work__content__projection ((a worker_work__ref)) us_rep 
  (worker_work__content a))

(define-fun dynamic_invariant2 ((temp___expr_169 Int)
  (temp___is_init_165 Bool) (temp___skip_constant_166 Bool)
  (temp___do_toplevel_167 Bool)
  (temp___do_typ_inv_168 Bool)) Bool (=>
                                     (or (= temp___is_init_165 true)
                                     (<= 0 2)) (in_range1 temp___expr_169)))

(declare-const worker_queue (_ BitVec 64))

;; Assume
  (assert true)

(declare-const spark__branch Bool)

;; H
  (assert
  (= spark__branch (ite (= worker_queue #x0000000000000000) true false)))

;; H
  (assert (= spark__branch true))

(define-fun o () Int value__size)

(assert
;; defqtvc
 ;; File "worker_pack.ads", line 23, characters 0-0
  (not (in_range o)))
(check-sat)

(exit)
